//Number of items      		
143
//Bin Capacity      
1000
//Known Best Solution  		
62
//Weight of Item
     800         2
     798         1
     788         1
     758         1
     755         1
     754         1
     752         1
     747         1
     742         1
     734         1
     731         1
     726         1
     722         1
     717         1
     716         1
     704         1
     699         1
     698         1
     695         1
     682         1
     671         1
     670         1
     669         1
     668         1
     667         1
     650         1
     645         1
     644         1
     643         1
     634         1
     630         2
     621         1
     617         1
     610         1
     588         1
     585         1
     574         1
     569         1
     548         1
     544         1
     541         1
     537         1
     519         1
     516         1
     506         1
     501         1
     498         2
     496         1
     495         1
     489         1
     483         1
     473         1
     469         1
     464         1
     460         1
     458         1
     449         1
     443         1
     440         1
     437         1
     436         1
     430         1
     427         1
     424         2
     423         2
     419         1
     411         1
     410         2
     408         2
     402         1
     401         1
     388         1
     378         1
     374         1
     373         1
     372         1
     370         1
     367         1
     365         1
     358         2
     355         1
     345         1
     341         1
     339         1
     338         2
     324         1
     320         1
     316         2
     305         1
     302         1
     291         2
     283         1
     275         1
     268         1
     266         1
     262         1
     249         2
     247         1
     245         1
     236         1
     234         1
     232         1
     231         1
     230         1
     228         2
     220         1
     216         1
     205         1
     201         1
     197         1
     194         1
     193         1
     190         2
     187         1
     175         1
     166         1
     164         1
     141         1
     138         1
     135         1
     123         1
     121         1
     116         1
     111         1
     101         1
      99         2
      87         1
      86         1
      77         1
      75         1
      73         1
      70         1
      66         2
      62         2
      54         1
      53         1
      51         1
      47         1
      43         1
      40         1
      27         1
      17         1
      12         1